qbf_easy_train/easy_2506_SAT.qdimacs
p cnf 21 49
a 5 3 13 0
e 1 2 4 6 7 8 9 10 11 12 14 15 16 17 18 19 20 21 0
-4 -2 0
-4 -3 0
2 3 4 0
-4 -5 -6 0
4 5 -6 0
-4 5 6 0
4 -5 6 0
1 -6 -7 0
-1 6 -7 0
1 6 7 0
-1 -6 7 0
9 2 0
9 8 0
-2 -8 -9 0
7 9 -10 0
-7 -9 -10 0
7 -9 10 0
-7 9 10 0
-11 3 -12 0
11 -3 -12 0
-11 -3 12 0
11 3 12 0
-14 -13 0
-14 3 0
13 -3 14 0
15 12 0
15 -14 0
-12 14 -15 0
-16 -10 0
-16 -15 0
10 15 16 0
18 1 0
18 -3 0
-1 3 -18 0
19 -2 0
19 18 0
2 -18 -19 0
-20 17 0
-20 19 0
-17 -19 20 0
-16 20 -21 0
16 -20 -21 0
-16 -20 21 0
16 20 21 0
1 -4 -18 2 -13 -11 19 0
-12 5 -1 16 4 0
2 -21 -19 -12 3 0
-8 20 -2 15 9 0
21 0
