sat_easy_train/easy_2506_SAT.dimacs
p cnf 82 253
-4 2 0
-4 3 0
-2 -3 4 0
1 4 -5 0
-1 -4 -5 0
1 -4 5 0
-1 4 5 0
8 7 0
8 6 0
-7 -6 -8 0
-9 -6 0
-9 8 0
6 -8 9 0
10 5 0
10 -9 0
-5 9 -10 0
-11 10 0
-11 -8 0
-10 8 11 0
13 12 0
13 1 0
-12 -1 -13 0
-14 13 0
-14 -6 0
-13 6 14 0
-15 -11 0
-15 14 0
11 -14 15 0
-17 -3 0
-17 -16 0
3 16 17 0
-19 17 0
-19 -18 0
-17 18 19 0
-19 12 -20 0
19 -12 -20 0
-19 -12 20 0
19 12 20 0
-15 -20 -21 0
15 20 -21 0
-15 20 21 0
15 -20 21 0
16 8 -22 0
-16 -8 -22 0
16 -8 22 0
-16 8 22 0
-23 -11 0
-23 17 0
11 -17 23 0
-24 22 0
-24 -23 0
-22 23 24 0
-25 26 -27 0
25 -26 -27 0
-25 -26 27 0
25 26 27 0
11 27 -28 0
-11 -27 -28 0
11 -27 28 0
-11 27 28 0
2 29 0
-2 29 0
29 18 -30 0
-29 -18 -30 0
29 -18 30 0
-29 18 30 0
-31 -28 0
-31 30 0
28 -30 31 0
-24 -31 -32 0
24 31 -32 0
-24 31 32 0
24 -31 32 0
-33 21 0
-33 32 0
-21 -32 33 0
35 -29 0
35 34 0
29 -34 -35 0
-38 36 0
-38 -37 0
-36 37 38 0
39 38 0
39 -38 0
-29 39 -40 0
29 -39 -40 0
-29 -39 40 0
29 39 40 0
35 40 -41 0
-35 -40 -41 0
35 -40 41 0
-35 40 41 0
-43 -42 0
-43 -1 0
42 1 43 0
-44 -17 0
-44 -43 0
17 43 44 0
-44 5 -45 0
44 -5 -45 0
-44 -5 45 0
44 5 45 0
41 45 -46 0
-41 -45 -46 0
41 -45 46 0
-41 45 46 0
-16 14 -47 0
16 -14 -47 0
-16 -14 47 0
16 14 47 0
-48 3 0
-48 -37 0
-3 37 48 0
-49 -25 0
-49 -25 0
25 49 0
50 -49 0
50 -19 0
49 19 -50 0
-48 50 -51 0
48 -50 -51 0
-48 -50 51 0
48 50 51 0
-52 47 0
-52 -51 0
-47 51 52 0
46 52 -53 0
-46 -52 -53 0
46 -52 53 0
-46 52 53 0
54 33 0
54 -53 0
-33 53 -54 0
-55 22 0
-55 26 0
-22 -26 55 0
-26 -55 -56 0
26 55 -56 0
-26 55 56 0
26 -55 56 0
-57 11 0
-57 1 0
-11 -1 57 0
-58 56 0
-58 -57 0
-56 57 58 0
59 55 0
59 -9 0
-55 9 -59 0
59 -49 -60 0
-59 49 -60 0
59 49 60 0
-59 -49 60 0
-61 -58 0
-61 -60 0
58 60 61 0
-38 -1 -62 0
38 1 -62 0
-38 1 62 0
38 -1 62 0
12 -63 -64 0
-12 63 -64 0
12 63 64 0
-12 -63 64 0
65 13 0
65 17 0
-13 -17 -65 0
66 64 0
66 65 0
-64 -65 -66 0
67 62 0
67 -66 0
-62 66 -67 0
-68 -61 0
-68 67 0
61 -67 68 0
-69 26 0
-69 -63 0
-26 63 69 0
-69 55 -70 0
69 -55 -70 0
-69 -55 70 0
69 55 70 0
-72 -36 0
-72 -71 0
36 71 72 0
70 -72 -73 0
-70 72 -73 0
70 72 73 0
-70 -72 73 0
-74 -7 0
-74 69 0
7 -69 74 0
75 -49 0
75 -65 0
49 65 -75 0
-75 -63 -76 0
75 63 -76 0
-75 63 76 0
75 -63 76 0
-76 -38 -77 0
76 38 -77 0
-76 38 77 0
76 -38 77 0
-78 -10 0
-78 77 0
10 -77 78 0
79 -74 0
79 78 0
74 -78 -79 0
80 -73 0
80 -79 0
73 79 -80 0
81 -68 0
81 80 0
68 -80 -81 0
82 54 0
82 81 0
-54 -81 -82 0
48 -38 -43 -16 0
-40 64 0
-57 5 -45 27 -77 0
37 -55 -6 -27 0
58 -45 -20 -29 -33 0
58 -10 14 13 16 -57 0
26 -73 82 -69 -39 0
36 19 27 0
-71 -27 -23 0
26 69 6 80 -9 0
74 80 -19 39 -7 -33 0
25 -2 50 0
-19 -30 -31 79 16 9 0
62 -32 33 0
-57 -11 0
67 -80 0
13 -20 -25 0
69 68 -51 0
9 21 62 13 -36 63 0
28 32 42 -35 -34 0
70 16 21 -17 11 0
-14 -35 19 -30 0
35 -59 -82 -10 -45 54 0
16 -38 -36 -35 82 12 0
-54 -2 29 0
-56 31 33 0
9 39 -8 -13 -14 -26 0
11 -30 0
-16 -73 27 -79 0
-79 12 -55 0
-44 1 -55 0
-18 21 68 0
-42 35 58 25 -56 44 0
82 0
